Maximize

1345.0 x_0 + 912.0 x_1 + 340.0 x_2 + 1172.0 x_3 + 1797.0 x_4 + 1652.0 x_5 + 1490.0 x_6 + 235.0 x_7 + 2085.0 x_8 + 462.0 x_9


Subject To

a0: 132 x_9 <= 1560
b0: 49 x_9 <= 1645
c0: x_0 <= 2
c1: x_1 <= 3
c2: x_2 <= 5
c3: x_3 <= 2
c4: x_4 <= 2
c5: x_5 <= 2
c6: x_6 <= 2
c7: x_7 <= 5
c8: x_8 <= 2
c9: x_9 <= 4



Bounds


x_0 < 10
x_1 < 10
x_2 < 10
x_3 < 10
x_4 < 10
x_5 < 10
x_6 < 10
x_7 < 10
x_8 < 10
x_9 < 10




General

 x_0 x_1 x_2 x_3 x_4 x_5 x_6 x_7 x_8 x_9



End
